(set-logic ALL)
; rows (m) = 400
; cols (n) = 1
(declare-const D (Array Int (Array Int Int)))
(define-fun m () Int 400)
(define-fun n () Int 1)

(define-fun row1 ((x0 Int)) (Array Int Int)
  (store ((as const (Array Int Int)) 0) 0 x0)
)

(assert (= (select D 0) (row1 6)))
(assert (= (select D 1) (row1 48)))
(assert (= (select D 2) (row1 12)))
(assert (= (select D 3) (row1 42)))
(assert (= (select D 4) (row1 24)))
(assert (= (select D 5) (row1 36)))
(assert (= (select D 6) (row1 24)))
(assert (= (select D 7) (row1 36)))
(assert (= (select D 8) (row1 12)))
(assert (= (select D 9) (row1 30)))
(assert (= (select D 10) (row1 12)))
(assert (= (select D 11) (row1 48)))
(assert (= (select D 12) (row1 12)))
(assert (= (select D 13) (row1 24)))
(assert (= (select D 14) (row1 15)))
(assert (= (select D 15) (row1 24)))
(assert (= (select D 16) (row1 24)))
(assert (= (select D 17) (row1 30)))
(assert (= (select D 18) (row1 24)))
(assert (= (select D 19) (row1 24)))
(assert (= (select D 20) (row1 9)))
(assert (= (select D 21) (row1 6)))
(assert (= (select D 22) (row1 10)))
(assert (= (select D 23) (row1 12)))
(assert (= (select D 24) (row1 10)))
(assert (= (select D 25) (row1 6)))
(assert (= (select D 26) (row1 6)))
(assert (= (select D 27) (row1 12)))
(assert (= (select D 28) (row1 7)))
(assert (= (select D 29) (row1 60)))
(assert (= (select D 30) (row1 18)))
(assert (= (select D 31) (row1 24)))
(assert (= (select D 32) (row1 18)))
(assert (= (select D 33) (row1 12)))
(assert (= (select D 34) (row1 12)))
(assert (= (select D 35) (row1 45)))
(assert (= (select D 36) (row1 48)))
(assert (= (select D 37) (row1 18)))
(assert (= (select D 38) (row1 10)))
(assert (= (select D 39) (row1 9)))
(assert (= (select D 40) (row1 30)))
(assert (= (select D 41) (row1 12)))
(assert (= (select D 42) (row1 18)))
(assert (= (select D 43) (row1 30)))
(assert (= (select D 44) (row1 48)))
(assert (= (select D 45) (row1 11)))
(assert (= (select D 46) (row1 36)))
(assert (= (select D 47) (row1 6)))
(assert (= (select D 48) (row1 11)))
(assert (= (select D 49) (row1 12)))
(assert (= (select D 50) (row1 24)))
(assert (= (select D 51) (row1 27)))
(assert (= (select D 52) (row1 12)))
(assert (= (select D 53) (row1 18)))
(assert (= (select D 54) (row1 36)))
(assert (= (select D 55) (row1 6)))
(assert (= (select D 56) (row1 12)))
(assert (= (select D 57) (row1 36)))
(assert (= (select D 58) (row1 18)))
(assert (= (select D 59) (row1 36)))
(assert (= (select D 60) (row1 9)))
(assert (= (select D 61) (row1 15)))
(assert (= (select D 62) (row1 36)))
(assert (= (select D 63) (row1 48)))
(assert (= (select D 64) (row1 24)))
(assert (= (select D 65) (row1 27)))
(assert (= (select D 66) (row1 12)))
(assert (= (select D 67) (row1 12)))
(assert (= (select D 68) (row1 36)))
(assert (= (select D 69) (row1 36)))
(assert (= (select D 70) (row1 36)))
(assert (= (select D 71) (row1 7)))
(assert (= (select D 72) (row1 8)))
(assert (= (select D 73) (row1 42)))
(assert (= (select D 74) (row1 36)))
(assert (= (select D 75) (row1 12)))
(assert (= (select D 76) (row1 42)))
(assert (= (select D 77) (row1 11)))
(assert (= (select D 78) (row1 54)))
(assert (= (select D 79) (row1 30)))
(assert (= (select D 80) (row1 24)))
(assert (= (select D 81) (row1 15)))
(assert (= (select D 82) (row1 18)))
(assert (= (select D 83) (row1 24)))
(assert (= (select D 84) (row1 10)))
(assert (= (select D 85) (row1 12)))
(assert (= (select D 86) (row1 18)))
(assert (= (select D 87) (row1 36)))
(assert (= (select D 88) (row1 18)))
(assert (= (select D 89) (row1 12)))
(assert (= (select D 90) (row1 12)))
(assert (= (select D 91) (row1 12)))
(assert (= (select D 92) (row1 12)))
(assert (= (select D 93) (row1 24)))
(assert (= (select D 94) (row1 12)))
(assert (= (select D 95) (row1 54)))
(assert (= (select D 96) (row1 12)))
(assert (= (select D 97) (row1 18)))
(assert (= (select D 98) (row1 36)))
(assert (= (select D 99) (row1 20)))
(assert (= (select D 100) (row1 24)))
(assert (= (select D 101) (row1 36)))
(assert (= (select D 102) (row1 6)))
(assert (= (select D 103) (row1 9)))
(assert (= (select D 104) (row1 12)))
(assert (= (select D 105) (row1 24)))
(assert (= (select D 106) (row1 18)))
(assert (= (select D 107) (row1 12)))
(assert (= (select D 108) (row1 24)))
(assert (= (select D 109) (row1 14)))
(assert (= (select D 110) (row1 6)))
(assert (= (select D 111) (row1 15)))
(assert (= (select D 112) (row1 18)))
(assert (= (select D 113) (row1 36)))
(assert (= (select D 114) (row1 12)))
(assert (= (select D 115) (row1 48)))
(assert (= (select D 116) (row1 42)))
(assert (= (select D 117) (row1 10)))
(assert (= (select D 118) (row1 33)))
(assert (= (select D 119) (row1 12)))
(assert (= (select D 120) (row1 21)))
(assert (= (select D 121) (row1 24)))
(assert (= (select D 122) (row1 12)))
(assert (= (select D 123) (row1 10)))
(assert (= (select D 124) (row1 18)))
(assert (= (select D 125) (row1 12)))
(assert (= (select D 126) (row1 12)))
(assert (= (select D 127) (row1 12)))
(assert (= (select D 128) (row1 12)))
(assert (= (select D 129) (row1 12)))
(assert (= (select D 130) (row1 48)))
(assert (= (select D 131) (row1 36)))
(assert (= (select D 132) (row1 15)))
(assert (= (select D 133) (row1 18)))
(assert (= (select D 134) (row1 60)))
(assert (= (select D 135) (row1 12)))
(assert (= (select D 136) (row1 27)))
(assert (= (select D 137) (row1 12)))
(assert (= (select D 138) (row1 15)))
(assert (= (select D 139) (row1 12)))
(assert (= (select D 140) (row1 6)))
(assert (= (select D 141) (row1 36)))
(assert (= (select D 142) (row1 27)))
(assert (= (select D 143) (row1 18)))
(assert (= (select D 144) (row1 21)))
(assert (= (select D 145) (row1 48)))
(assert (= (select D 146) (row1 6)))
(assert (= (select D 147) (row1 12)))
(assert (= (select D 148) (row1 36)))
(assert (= (select D 149) (row1 18)))
(assert (= (select D 150) (row1 6)))
(assert (= (select D 151) (row1 10)))
(assert (= (select D 152) (row1 36)))
(assert (= (select D 153) (row1 24)))
(assert (= (select D 154) (row1 24)))
(assert (= (select D 155) (row1 12)))
(assert (= (select D 156) (row1 9)))
(assert (= (select D 157) (row1 12)))
(assert (= (select D 158) (row1 24)))
(assert (= (select D 159) (row1 6)))
(assert (= (select D 160) (row1 24)))
(assert (= (select D 161) (row1 18)))
(assert (= (select D 162) (row1 15)))
(assert (= (select D 163) (row1 10)))
(assert (= (select D 164) (row1 36)))
(assert (= (select D 165) (row1 6)))
(assert (= (select D 166) (row1 18)))
(assert (= (select D 167) (row1 11)))
(assert (= (select D 168) (row1 24)))
(assert (= (select D 169) (row1 24)))
(assert (= (select D 170) (row1 15)))
(assert (= (select D 171) (row1 12)))
(assert (= (select D 172) (row1 24)))
(assert (= (select D 173) (row1 8)))
(assert (= (select D 174) (row1 21)))
(assert (= (select D 175) (row1 30)))
(assert (= (select D 176) (row1 12)))
(assert (= (select D 177) (row1 6)))
(assert (= (select D 178) (row1 12)))
(assert (= (select D 179) (row1 21)))
(assert (= (select D 180) (row1 36)))
(assert (= (select D 181) (row1 36)))
(assert (= (select D 182) (row1 21)))
(assert (= (select D 183) (row1 24)))
(assert (= (select D 184) (row1 18)))
(assert (= (select D 185) (row1 15)))
(assert (= (select D 186) (row1 9)))
(assert (= (select D 187) (row1 16)))
(assert (= (select D 188) (row1 12)))
(assert (= (select D 189) (row1 18)))
(assert (= (select D 190) (row1 24)))
(assert (= (select D 191) (row1 48)))
(assert (= (select D 192) (row1 27)))
(assert (= (select D 193) (row1 6)))
(assert (= (select D 194) (row1 45)))
(assert (= (select D 195) (row1 9)))
(assert (= (select D 196) (row1 6)))
(assert (= (select D 197) (row1 12)))
(assert (= (select D 198) (row1 24)))
(assert (= (select D 199) (row1 18)))
(assert (= (select D 200) (row1 9)))
(assert (= (select D 201) (row1 12)))
(assert (= (select D 202) (row1 27)))
(assert (= (select D 203) (row1 12)))
(assert (= (select D 204) (row1 12)))
(assert (= (select D 205) (row1 30)))
(assert (= (select D 206) (row1 12)))
(assert (= (select D 207) (row1 12)))
(assert (= (select D 208) (row1 24)))
(assert (= (select D 209) (row1 12)))
(assert (= (select D 210) (row1 9)))
(assert (= (select D 211) (row1 36)))
(assert (= (select D 212) (row1 27)))
(assert (= (select D 213) (row1 30)))
(assert (= (select D 214) (row1 36)))
(assert (= (select D 215) (row1 6)))
(assert (= (select D 216) (row1 18)))
(assert (= (select D 217) (row1 36)))
(assert (= (select D 218) (row1 24)))
(assert (= (select D 219) (row1 10)))
(assert (= (select D 220) (row1 12)))
(assert (= (select D 221) (row1 12)))
(assert (= (select D 222) (row1 12)))
(assert (= (select D 223) (row1 24)))
(assert (= (select D 224) (row1 15)))
(assert (= (select D 225) (row1 36)))
(assert (= (select D 226) (row1 48)))
(assert (= (select D 227) (row1 12)))
(assert (= (select D 228) (row1 9)))
(assert (= (select D 229) (row1 24)))
(assert (= (select D 230) (row1 36)))
(assert (= (select D 231) (row1 9)))
(assert (= (select D 232) (row1 12)))
(assert (= (select D 233) (row1 18)))
(assert (= (select D 234) (row1 4)))
(assert (= (select D 235) (row1 24)))
(assert (= (select D 236) (row1 6)))
(assert (= (select D 237) (row1 21)))
(assert (= (select D 238) (row1 12)))
(assert (= (select D 239) (row1 30)))
(assert (= (select D 240) (row1 24)))
(assert (= (select D 241) (row1 6)))
(assert (= (select D 242) (row1 48)))
(assert (= (select D 243) (row1 12)))
(assert (= (select D 244) (row1 12)))
(assert (= (select D 245) (row1 24)))
(assert (= (select D 246) (row1 12)))
(assert (= (select D 247) (row1 6)))
(assert (= (select D 248) (row1 24)))
(assert (= (select D 249) (row1 18)))
(assert (= (select D 250) (row1 6)))
(assert (= (select D 251) (row1 12)))
(assert (= (select D 252) (row1 30)))
(assert (= (select D 253) (row1 24)))
(assert (= (select D 254) (row1 9)))
(assert (= (select D 255) (row1 60)))
(assert (= (select D 256) (row1 24)))
(assert (= (select D 257) (row1 12)))
(assert (= (select D 258) (row1 15)))
(assert (= (select D 259) (row1 11)))
(assert (= (select D 260) (row1 12)))
(assert (= (select D 261) (row1 24)))
(assert (= (select D 262) (row1 18)))
(assert (= (select D 263) (row1 12)))
(assert (= (select D 264) (row1 10)))
(assert (= (select D 265) (row1 15)))
(assert (= (select D 266) (row1 36)))
(assert (= (select D 267) (row1 24)))
(assert (= (select D 268) (row1 14)))
(assert (= (select D 269) (row1 24)))
(assert (= (select D 270) (row1 18)))
(assert (= (select D 271) (row1 12)))
(assert (= (select D 272) (row1 48)))
(assert (= (select D 273) (row1 48)))
(assert (= (select D 274) (row1 30)))
(assert (= (select D 275) (row1 9)))
(assert (= (select D 276) (row1 18)))
(assert (= (select D 277) (row1 12)))
(assert (= (select D 278) (row1 6)))
(assert (= (select D 279) (row1 24)))
(assert (= (select D 280) (row1 15)))
(assert (= (select D 281) (row1 12)))
(assert (= (select D 282) (row1 18)))
(assert (= (select D 283) (row1 15)))
(assert (= (select D 284) (row1 24)))
(assert (= (select D 285) (row1 47)))
(assert (= (select D 286) (row1 48)))
(assert (= (select D 287) (row1 48)))
(assert (= (select D 288) (row1 12)))
(assert (= (select D 289) (row1 24)))
(assert (= (select D 290) (row1 12)))
(assert (= (select D 291) (row1 36)))
(assert (= (select D 292) (row1 24)))
(assert (= (select D 293) (row1 42)))
(assert (= (select D 294) (row1 48)))
(assert (= (select D 295) (row1 48)))
(assert (= (select D 296) (row1 12)))
(assert (= (select D 297) (row1 10)))
(assert (= (select D 298) (row1 18)))
(assert (= (select D 299) (row1 21)))
(assert (= (select D 300) (row1 6)))
(assert (= (select D 301) (row1 36)))
(assert (= (select D 302) (row1 24)))
(assert (= (select D 303) (row1 10)))
(assert (= (select D 304) (row1 48)))
(assert (= (select D 305) (row1 6)))
(assert (= (select D 306) (row1 30)))
(assert (= (select D 307) (row1 12)))
(assert (= (select D 308) (row1 8)))
(assert (= (select D 309) (row1 9)))
(assert (= (select D 310) (row1 48)))
(assert (= (select D 311) (row1 24)))
(assert (= (select D 312) (row1 24)))
(assert (= (select D 313) (row1 12)))
(assert (= (select D 314) (row1 4)))
(assert (= (select D 315) (row1 36)))
(assert (= (select D 316) (row1 12)))
(assert (= (select D 317) (row1 24)))
(assert (= (select D 318) (row1 12)))
(assert (= (select D 319) (row1 15)))
(assert (= (select D 320) (row1 30)))
(assert (= (select D 321) (row1 24)))
(assert (= (select D 322) (row1 24)))
(assert (= (select D 323) (row1 18)))
(assert (= (select D 324) (row1 18)))
(assert (= (select D 325) (row1 8)))
(assert (= (select D 326) (row1 12)))
(assert (= (select D 327) (row1 24)))
(assert (= (select D 328) (row1 36)))
(assert (= (select D 329) (row1 6)))
(assert (= (select D 330) (row1 24)))
(assert (= (select D 331) (row1 18)))
(assert (= (select D 332) (row1 60)))
(assert (= (select D 333) (row1 48)))
(assert (= (select D 334) (row1 24)))
(assert (= (select D 335) (row1 6)))
(assert (= (select D 336) (row1 13)))
(assert (= (select D 337) (row1 15)))
(assert (= (select D 338) (row1 24)))
(assert (= (select D 339) (row1 10)))
(assert (= (select D 340) (row1 24)))
(assert (= (select D 341) (row1 21)))
(assert (= (select D 342) (row1 18)))
(assert (= (select D 343) (row1 18)))
(assert (= (select D 344) (row1 10)))
(assert (= (select D 345) (row1 15)))
(assert (= (select D 346) (row1 13)))
(assert (= (select D 347) (row1 24)))
(assert (= (select D 348) (row1 6)))
(assert (= (select D 349) (row1 9)))
(assert (= (select D 350) (row1 9)))
(assert (= (select D 351) (row1 9)))
(assert (= (select D 352) (row1 18)))
(assert (= (select D 353) (row1 12)))
(assert (= (select D 354) (row1 10)))
(assert (= (select D 355) (row1 24)))
(assert (= (select D 356) (row1 12)))
(assert (= (select D 357) (row1 36)))
(assert (= (select D 358) (row1 12)))
(assert (= (select D 359) (row1 30)))
(assert (= (select D 360) (row1 18)))
(assert (= (select D 361) (row1 12)))
(assert (= (select D 362) (row1 12)))
(assert (= (select D 363) (row1 6)))
(assert (= (select D 364) (row1 18)))
(assert (= (select D 365) (row1 12)))
(assert (= (select D 366) (row1 18)))
(assert (= (select D 367) (row1 18)))
(assert (= (select D 368) (row1 36)))
(assert (= (select D 369) (row1 18)))
(assert (= (select D 370) (row1 36)))
(assert (= (select D 371) (row1 18)))
(assert (= (select D 372) (row1 10)))
(assert (= (select D 373) (row1 60)))
(assert (= (select D 374) (row1 60)))
(assert (= (select D 375) (row1 48)))
(assert (= (select D 376) (row1 18)))
(assert (= (select D 377) (row1 7)))
(assert (= (select D 378) (row1 36)))
(assert (= (select D 379) (row1 6)))
(assert (= (select D 380) (row1 20)))
(assert (= (select D 381) (row1 18)))
(assert (= (select D 382) (row1 22)))
(assert (= (select D 383) (row1 12)))
(assert (= (select D 384) (row1 30)))
(assert (= (select D 385) (row1 18)))
(assert (= (select D 386) (row1 18)))
(assert (= (select D 387) (row1 18)))
(assert (= (select D 388) (row1 15)))
(assert (= (select D 389) (row1 9)))
(assert (= (select D 390) (row1 18)))
(assert (= (select D 391) (row1 12)))
(assert (= (select D 392) (row1 36)))
(assert (= (select D 393) (row1 6)))
(assert (= (select D 394) (row1 9)))
(assert (= (select D 395) (row1 39)))
(assert (= (select D 396) (row1 12)))
(assert (= (select D 397) (row1 36)))
(assert (= (select D 398) (row1 12)))
(assert (= (select D 399) (row1 24)))

(assert
  (forall ((i Int))
    (=>
      (and (>= i 0) (< i m))
      (and
        (>= (select (select D i) 0) 0)
        (<  (select (select D i) 0) 600)
      )
    )
  )
)

(check-sat)